c This is a CNF problem created by a CNF object marshaller in Python
p cnf 465 1526
3 4 5 0
-3 -4 0
-3 -5 0
-4 -5 0
6 7 8 0
-6 -7 0
-6 -8 0
-7 -8 0
9 10 11 0
-9 -10 0
-9 -11 0
-10 -11 0
12 13 14 0
-12 -13 0
-12 -14 0
-13 -14 0
15 16 17 0
-15 -16 0
-15 -17 0
-16 -17 0
18 19 20 0
-18 -19 0
-18 -20 0
-19 -20 0
21 22 23 0
-21 -22 0
-21 -23 0
-22 -23 0
24 25 26 0
-24 -25 0
-24 -26 0
-25 -26 0
27 28 29 0
-27 -28 0
-27 -29 0
-28 -29 0
30 31 32 0
-30 -31 0
-30 -32 0
-31 -32 0
33 34 35 0
-33 -34 0
-33 -35 0
-34 -35 0
36 37 38 0
-36 -37 0
-36 -38 0
-37 -38 0
39 40 41 0
-39 -40 0
-39 -41 0
-40 -41 0
42 43 44 0
-42 -43 0
-42 -44 0
-43 -44 0
45 46 47 0
-45 -46 0
-45 -47 0
-46 -47 0
48 49 50 0
-48 -49 0
-48 -50 0
-49 -50 0
51 52 53 0
-51 -52 0
-51 -53 0
-52 -53 0
54 55 56 0
-54 -55 0
-54 -56 0
-55 -56 0
57 58 59 0
-57 -58 0
-57 -59 0
-58 -59 0
60 61 62 0
-60 -61 0
-60 -62 0
-61 -62 0
63 64 65 0
-63 -64 0
-63 -65 0
-64 -65 0
66 67 68 0
-66 -67 0
-66 -68 0
-67 -68 0
69 70 71 0
-69 -70 0
-69 -71 0
-70 -71 0
72 73 74 0
-72 -73 0
-72 -74 0
-73 -74 0
75 76 77 0
-75 -76 0
-75 -77 0
-76 -77 0
78 79 80 0
-78 -79 0
-78 -80 0
-79 -80 0
81 82 83 0
-81 -82 0
-81 -83 0
-82 -83 0
84 85 86 0
-84 -85 0
-84 -86 0
-85 -86 0
87 88 89 0
-87 -88 0
-87 -89 0
-88 -89 0
90 91 92 0
-90 -91 0
-90 -92 0
-91 -92 0
93 94 95 0
-93 -94 0
-93 -95 0
-94 -95 0
96 97 98 0
-96 -97 0
-96 -98 0
-97 -98 0
99 100 101 0
-99 -100 0
-99 -101 0
-100 -101 0
102 103 104 0
-102 -103 0
-102 -104 0
-103 -104 0
105 106 107 0
-105 -106 0
-105 -107 0
-106 -107 0
108 109 110 0
-108 -109 0
-108 -110 0
-109 -110 0
111 112 113 0
-111 -112 0
-111 -113 0
-112 -113 0
114 115 116 0
-114 -115 0
-114 -116 0
-115 -116 0
117 118 119 0
-117 -118 0
-117 -119 0
-118 -119 0
120 121 122 0
-120 -121 0
-120 -122 0
-121 -122 0
123 124 125 0
-123 -124 0
-123 -125 0
-124 -125 0
126 127 128 0
-126 -127 0
-126 -128 0
-127 -128 0
129 130 131 0
-129 -130 0
-129 -131 0
-130 -131 0
132 133 134 0
-132 -133 0
-132 -134 0
-133 -134 0
135 136 137 0
-135 -136 0
-135 -137 0
-136 -137 0
138 139 140 0
-138 -139 0
-138 -140 0
-139 -140 0
141 142 143 0
-141 -142 0
-141 -143 0
-142 -143 0
144 145 146 0
-144 -145 0
-144 -146 0
-145 -146 0
147 148 149 0
-147 -148 0
-147 -149 0
-148 -149 0
150 151 152 0
-150 -151 0
-150 -152 0
-151 -152 0
153 154 155 0
-153 -154 0
-153 -155 0
-154 -155 0
156 157 158 0
-156 -157 0
-156 -158 0
-157 -158 0
159 160 161 0
-159 -160 0
-159 -161 0
-160 -161 0
162 163 164 0
-162 -163 0
-162 -164 0
-163 -164 0
165 166 167 0
-165 -166 0
-165 -167 0
-166 -167 0
168 169 170 0
-168 -169 0
-168 -170 0
-169 -170 0
171 172 173 0
-171 -172 0
-171 -173 0
-172 -173 0
174 175 176 0
-174 -175 0
-174 -176 0
-175 -176 0
177 178 179 0
-177 -178 0
-177 -179 0
-178 -179 0
180 181 182 0
-180 -181 0
-180 -182 0
-181 -182 0
183 184 185 0
-183 -184 0
-183 -185 0
-184 -185 0
186 187 188 0
-186 -187 0
-186 -188 0
-187 -188 0
189 190 191 0
-189 -190 0
-189 -191 0
-190 -191 0
192 193 194 0
-192 -193 0
-192 -194 0
-193 -194 0
195 196 197 0
-195 -196 0
-195 -197 0
-196 -197 0
198 199 200 0
-198 -199 0
-198 -200 0
-199 -200 0
201 202 203 0
-201 -202 0
-201 -203 0
-202 -203 0
204 205 206 0
-204 -205 0
-204 -206 0
-205 -206 0
207 208 209 0
-207 -208 0
-207 -209 0
-208 -209 0
210 211 212 0
-210 -211 0
-210 -212 0
-211 -212 0
213 214 215 0
-213 -214 0
-213 -215 0
-214 -215 0
216 217 218 0
-216 -217 0
-216 -218 0
-217 -218 0
219 220 221 0
-219 -220 0
-219 -221 0
-220 -221 0
222 223 224 0
-222 -223 0
-222 -224 0
-223 -224 0
225 226 227 0
-225 -226 0
-225 -227 0
-226 -227 0
228 229 230 0
-228 -229 0
-228 -230 0
-229 -230 0
231 232 233 0
-231 -232 0
-231 -233 0
-232 -233 0
234 235 236 0
-234 -235 0
-234 -236 0
-235 -236 0
237 238 239 0
-237 -238 0
-237 -239 0
-238 -239 0
240 241 242 0
-240 -241 0
-240 -242 0
-241 -242 0
243 244 245 0
-243 -244 0
-243 -245 0
-244 -245 0
246 247 248 0
-246 -247 0
-246 -248 0
-247 -248 0
249 250 251 0
-249 -250 0
-249 -251 0
-250 -251 0
252 253 254 0
-252 -253 0
-252 -254 0
-253 -254 0
255 256 257 0
-255 -256 0
-255 -257 0
-256 -257 0
258 259 260 0
-258 -259 0
-258 -260 0
-259 -260 0
261 262 263 0
-261 -262 0
-261 -263 0
-262 -263 0
264 265 266 0
-264 -265 0
-264 -266 0
-265 -266 0
267 268 269 0
-267 -268 0
-267 -269 0
-268 -269 0
270 271 272 0
-270 -271 0
-270 -272 0
-271 -272 0
273 274 275 0
-273 -274 0
-273 -275 0
-274 -275 0
276 277 278 0
-276 -277 0
-276 -278 0
-277 -278 0
279 280 281 0
-279 -280 0
-279 -281 0
-280 -281 0
282 283 284 0
-282 -283 0
-282 -284 0
-283 -284 0
285 286 287 0
-285 -286 0
-285 -287 0
-286 -287 0
288 289 290 0
-288 -289 0
-288 -290 0
-289 -290 0
291 292 293 0
-291 -292 0
-291 -293 0
-292 -293 0
294 295 296 0
-294 -295 0
-294 -296 0
-295 -296 0
297 298 299 0
-297 -298 0
-297 -299 0
-298 -299 0
300 301 302 0
-300 -301 0
-300 -302 0
-301 -302 0
303 304 305 0
-303 -304 0
-303 -305 0
-304 -305 0
306 307 308 0
-306 -307 0
-306 -308 0
-307 -308 0
309 310 311 0
-309 -310 0
-309 -311 0
-310 -311 0
312 313 314 0
-312 -313 0
-312 -314 0
-313 -314 0
315 316 317 0
-315 -316 0
-315 -317 0
-316 -317 0
318 319 320 0
-318 -319 0
-318 -320 0
-319 -320 0
321 322 323 0
-321 -322 0
-321 -323 0
-322 -323 0
324 325 326 0
-324 -325 0
-324 -326 0
-325 -326 0
327 328 329 0
-327 -328 0
-327 -329 0
-328 -329 0
330 331 332 0
-330 -331 0
-330 -332 0
-331 -332 0
333 334 335 0
-333 -334 0
-333 -335 0
-334 -335 0
336 337 338 0
-336 -337 0
-336 -338 0
-337 -338 0
339 340 341 0
-339 -340 0
-339 -341 0
-340 -341 0
342 343 344 0
-342 -343 0
-342 -344 0
-343 -344 0
345 346 347 0
-345 -346 0
-345 -347 0
-346 -347 0
348 349 350 0
-348 -349 0
-348 -350 0
-349 -350 0
351 352 353 0
-351 -352 0
-351 -353 0
-352 -353 0
354 355 356 0
-354 -355 0
-354 -356 0
-355 -356 0
357 358 359 0
-357 -358 0
-357 -359 0
-358 -359 0
360 361 362 0
-360 -361 0
-360 -362 0
-361 -362 0
363 364 365 0
-363 -364 0
-363 -365 0
-364 -365 0
366 367 368 0
-366 -367 0
-366 -368 0
-367 -368 0
369 370 371 0
-369 -370 0
-369 -371 0
-370 -371 0
372 373 374 0
-372 -373 0
-372 -374 0
-373 -374 0
375 376 377 0
-375 -376 0
-375 -377 0
-376 -377 0
378 379 380 0
-378 -379 0
-378 -380 0
-379 -380 0
381 382 383 0
-381 -382 0
-381 -383 0
-382 -383 0
384 385 386 0
-384 -385 0
-384 -386 0
-385 -386 0
387 388 389 0
-387 -388 0
-387 -389 0
-388 -389 0
390 391 392 0
-390 -391 0
-390 -392 0
-391 -392 0
393 394 395 0
-393 -394 0
-393 -395 0
-394 -395 0
396 397 398 0
-396 -397 0
-396 -398 0
-397 -398 0
399 400 401 0
-399 -400 0
-399 -401 0
-400 -401 0
402 403 404 0
-402 -403 0
-402 -404 0
-403 -404 0
405 406 407 0
-405 -406 0
-405 -407 0
-406 -407 0
-66 -65 -64 0
66 65 0
66 64 0
65 64 0
-63 -62 -61 0
63 62 0
63 61 0
62 61 0
-60 -59 -58 0
60 59 0
60 58 0
59 58 0
-57 -56 -55 0
57 56 0
57 55 0
56 55 0
-54 -53 -52 0
54 53 0
54 52 0
53 52 0
-51 -50 -49 0
51 50 0
51 49 0
50 49 0
-48 -47 -46 0
48 47 0
48 46 0
47 46 0
-45 -44 -43 0
45 44 0
45 43 0
44 43 0
-42 -41 -40 0
42 41 0
42 40 0
41 40 0
-39 -38 -37 0
39 38 0
39 37 0
38 37 0
-36 -35 -34 0
36 35 0
36 34 0
35 34 0
-33 -32 -31 0
33 32 0
33 31 0
32 31 0
-6 -5 -4 0
6 5 0
6 4 0
5 4 0
-24 -23 -22 0
24 23 0
24 22 0
23 22 0
-21 -20 -19 0
21 20 0
21 19 0
20 19 0
-18 -17 -16 0
18 17 0
18 16 0
17 16 0
-15 -14 -13 0
15 14 0
15 13 0
14 13 0
-12 -11 -10 0
12 11 0
12 10 0
11 10 0
-9 -8 -7 0
9 8 0
9 7 0
8 7 0
-3 -2 -1 0
3 2 0
3 1 0
2 1 0
-288 -285 0
-289 -286 0
-290 -287 0
-270 -72 0
-271 -73 0
-272 -74 0
-174 -168 0
-175 -169 0
-176 -170 0
-126 -117 0
-127 -118 0
-128 -119 0
-123 -120 0
-124 -121 0
-125 -122 0
-201 -204 0
-202 -205 0
-203 -206 0
-156 -147 0
-157 -148 0
-158 -149 0
33 -33 0
32 -34 0
31 -35 0
48 -72 0
47 -73 0
46 -74 0
-105 -99 0
-106 -100 0
-107 -101 0
-234 -231 0
-235 -232 0
-236 -233 0
-381 -375 0
-382 -376 0
-383 -377 0
-144 -135 0
-145 -136 0
-146 -137 0
-387 -384 0
-388 -385 0
-389 -386 0
-300 -303 0
-301 -304 0
-302 -305 0
9 -72 0
8 -73 0
7 -74 0
42 -72 0
41 -73 0
40 -74 0
-156 -72 0
-157 -73 0
-158 -74 0
-333 -330 0
-334 -331 0
-335 -332 0
-36 36 0
-37 35 0
-38 34 0
-198 -69 0
-199 -70 0
-200 -71 0
-288 -72 0
-289 -73 0
-290 -74 0
-384 -378 0
-385 -379 0
-386 -380 0
-3 -237 0
-4 -238 0
-5 -239 0
-192 -186 0
-193 -187 0
-194 -188 0
-3 -72 0
-4 -73 0
-5 -74 0
12 -222 0
11 -223 0
10 -224 0
-126 -123 0
-127 -124 0
-128 -125 0
-219 -222 0
-220 -223 0
-221 -224 0
-177 -171 0
-178 -172 0
-179 -173 0
36 -72 0
35 -73 0
34 -74 0
-402 -399 0
-403 -400 0
-404 -401 0
-162 -72 0
-163 -73 0
-164 -74 0
-327 -72 0
-328 -73 0
-329 -74 0
-144 -141 0
-145 -142 0
-146 -143 0
-195 -189 0
-196 -190 0
-197 -191 0
-9 -72 0
-10 -73 0
-11 -74 0
-42 -72 0
-43 -73 0
-44 -74 0
15 -225 0
14 -226 0
13 -227 0
-174 -72 0
-175 -73 0
-176 -74 0
-51 -261 0
-52 -262 0
-53 -263 0
-318 -321 0
-319 -322 0
-320 -323 0
-327 -318 0
-328 -319 0
-329 -320 0
45 -183 0
44 -184 0
43 -185 0
66 -66 0
65 -67 0
64 -68 0
-42 -153 0
-43 -154 0
-44 -155 0
-264 -258 0
-265 -259 0
-266 -260 0
57 -336 0
56 -337 0
55 -338 0
-315 -306 0
-316 -307 0
-317 -308 0
-246 -237 0
-247 -238 0
-248 -239 0
-48 -72 0
-49 -73 0
-50 -74 0
-246 -72 0
-247 -73 0
-248 -74 0
63 -372 0
62 -373 0
61 -374 0
-210 -204 0
-211 -205 0
-212 -206 0
-87 -81 0
-88 -82 0
-89 -83 0
-60 -72 0
-61 -73 0
-62 -74 0
-231 -228 0
-232 -229 0
-233 -230 0
-138 -129 0
-139 -130 0
-140 -131 0
-6 -321 0
-7 -322 0
-8 -323 0
-333 -69 0
-334 -70 0
-335 -71 0
-363 -357 0
-364 -358 0
-365 -359 0
-180 -69 0
-181 -70 0
-182 -71 0
-345 -336 0
-346 -337 0
-347 -338 0
-228 -222 0
-229 -223 0
-230 -224 0
-255 -258 0
-256 -259 0
-257 -260 0
66 -72 0
65 -73 0
64 -74 0
-330 -327 0
-331 -328 0
-332 -329 0
-264 -72 0
-265 -73 0
-266 -74 0
-297 -72 0
-298 -73 0
-299 -74 0
-315 -312 0
-316 -313 0
-317 -314 0
-48 -243 0
-49 -244 0
-50 -245 0
21 -72 0
20 -73 0
19 -74 0
54 -72 0
53 -73 0
52 -74 0
-297 -291 0
-298 -292 0
-299 -293 0
-144 -72 0
-145 -73 0
-146 -74 0
48 -255 0
47 -256 0
46 -257 0
-351 -69 0
-352 -70 0
-353 -71 0
-309 -72 0
-310 -73 0
-311 -74 0
-354 -357 0
-355 -358 0
-356 -359 0
-15 -186 0
-16 -187 0
-17 -188 0
-24 -375 0
-25 -376 0
-26 -377 0
9 -9 0
8 -10 0
7 -11 0
-285 -279 0
-286 -280 0
-287 -281 0
54 -318 0
53 -319 0
52 -320 0
-120 -114 0
-121 -115 0
-122 -116 0
-147 -150 0
-148 -151 0
-149 -152 0
-63 63 0
-64 62 0
-65 61 0
-18 -135 0
-19 -136 0
-20 -137 0
-249 -246 0
-250 -247 0
-251 -248 0
15 -72 0
14 -73 0
13 -74 0
-45 -171 0
-46 -172 0
-47 -173 0
-387 -72 0
-388 -73 0
-389 -74 0
-315 -72 0
-316 -73 0
-317 -74 0
6 -150 0
5 -151 0
4 -152 0
-381 -72 0
-382 -73 0
-383 -74 0
-282 -273 0
-283 -274 0
-284 -275 0
-90 -81 0
-91 -82 0
-92 -83 0
-165 -168 0
-166 -169 0
-167 -170 0
-270 -69 0
-271 -70 0
-272 -71 0
-123 -117 0
-124 -118 0
-125 -119 0
-228 -72 0
-229 -73 0
-230 -74 0
-57 57 0
-58 56 0
-59 55 0
-270 -261 0
-271 -262 0
-272 -263 0
-6 -279 0
-7 -280 0
-8 -281 0
-66 -378 0
-67 -379 0
-68 -380 0
-399 -393 0
-400 -394 0
-401 -395 0
-348 -345 0
-349 -346 0
-350 -347 0
-381 -372 0
-382 -373 0
-383 -374 0
-69 -72 0
-70 -73 0
-71 -74 0
-36 -72 0
-37 -73 0
-38 -74 0
-234 -72 0
-235 -73 0
-236 -74 0
-399 -72 0
-400 -73 0
-401 -74 0
33 -93 0
32 -94 0
31 -95 0
-36 -99 0
-37 -100 0
-38 -101 0
-369 -360 0
-370 -361 0
-371 -362 0
-294 -6 0
-295 -7 0
-296 -8 0
39 -129 0
38 -130 0
37 -131 0
-366 -363 0
-367 -364 0
-368 -365 0
-267 -264 0
-268 -265 0
-269 -266 0
-12 -114 0
-13 -115 0
-14 -116 0
-288 -69 0
-289 -70 0
-290 -71 0
-21 -357 0
-22 -358 0
-23 -359 0
-159 -156 0
-160 -157 0
-161 -158 0
-162 -153 0
-163 -154 0
-164 -155 0
-90 -87 0
-91 -88 0
-92 -89 0
-141 -135 0
-142 -136 0
-143 -137 0
-192 -183 0
-193 -184 0
-194 -185 0
-237 -240 0
-238 -241 0
-239 -242 0
-270 -267 0
-271 -268 0
-272 -269 0
45 -45 0
44 -46 0
43 -47 0
45 -72 0
44 -73 0
43 -74 0
51 -273 0
50 -274 0
49 -275 0
-120 -72 0
-121 -73 0
-122 -74 0
-402 -396 0
-403 -397 0
-404 -398 0
-162 -69 0
-163 -70 0
-164 -71 0
-180 -171 0
-181 -172 0
-182 -173 0
-252 -72 0
-253 -73 0
-254 -74 0
-309 -303 0
-310 -304 0
-311 -305 0
33 -72 0
32 -73 0
31 -74 0
-336 -339 0
-337 -340 0
-338 -341 0
-405 -69 0
-406 -70 0
-407 -71 0
-369 -366 0
-370 -367 0
-371 -368 0
-18 18 0
-19 17 0
-20 16 0
-102 -96 0
-103 -97 0
-104 -98 0
-21 21 0
-22 20 0
-23 19 0
-84 -75 0
-85 -76 0
-86 -77 0
-126 -72 0
-127 -73 0
-128 -74 0
-162 -159 0
-163 -160 0
-164 -161 0
-213 -207 0
-214 -208 0
-215 -209 0
-264 -255 0
-265 -256 0
-266 -257 0
21 -393 0
20 -394 0
19 -395 0
-33 -81 0
-34 -82 0
-35 -83 0
-75 -78 0
-76 -79 0
-77 -80 0
-6 -72 0
-7 -73 0
-8 -74 0
-3 -75 0
-4 -76 0
-5 -77 0
-138 -72 0
-139 -73 0
-140 -74 0
-369 -72 0
-370 -73 0
-371 -74 0
-30 -303 0
-31 -304 0
-32 -305 0
-18 -72 0
-19 -73 0
-20 -74 0
-180 -177 0
-181 -178 0
-182 -179 0
42 -165 0
41 -166 0
40 -167 0
-231 -225 0
-232 -226 0
-233 -227 0
-15 -204 0
-16 -205 0
-17 -206 0
-216 -72 0
-217 -73 0
-218 -74 0
-93 -96 0
-94 -97 0
-95 -98 0
-252 -243 0
-253 -244 0
-254 -245 0
-39 -117 0
-40 -118 0
-41 -119 0
-312 -306 0
-313 -307 0
-314 -308 0
-363 -354 0
-364 -355 0
-365 -356 0
-198 -189 0
-199 -190 0
-200 -191 0
9 -219 0
8 -220 0
7 -221 0
-12 -72 0
-13 -73 0
-14 -74 0
-210 -72 0
-211 -73 0
-212 -74 0
36 -111 0
35 -112 0
34 -113 0
-90 -72 0
-91 -73 0
-92 -74 0
-351 -342 0
-352 -343 0
-353 -344 0
-24 -72 0
-25 -73 0
-26 -74 0
-330 -324 0
-331 -325 0
-332 -326 0
-297 -69 0
-298 -70 0
-299 -71 0
-57 -72 0
-58 -73 0
-59 -74 0
-291 3 0
-292 2 0
-293 1 0
-6 -78 0
-7 -79 0
-8 -80 0
-246 -240 0
-247 -241 0
-248 -242 0
-144 -69 0
-145 -70 0
-146 -71 0
-174 -165 0
-175 -166 0
-176 -167 0
39 -39 0
38 -40 0
37 -41 0
-252 -249 0
-253 -250 0
-254 -251 0
-138 -132 0
-139 -133 0
-140 -134 0
-87 -84 0
-88 -85 0
-89 -86 0
15 -15 0
14 -16 0
13 -17 0
-63 -72 0
-64 -73 0
-65 -74 0
-120 -111 0
-121 -112 0
-122 -113 0
-291 -294 0
-292 -295 0
-293 -296 0
57 -72 0
56 -73 0
55 -74 0
-108 -72 0
-109 -73 0
-110 -74 0
-345 -339 0
-346 -340 0
-347 -341 0
-315 -69 0
-316 -70 0
-317 -71 0
3 -147 0
2 -148 0
1 -149 0
-108 -99 0
-109 -100 0
-110 -101 0
-351 -348 0
-352 -349 0
-353 -350 0
-288 -279 0
-289 -280 0
-290 -281 0
-297 -294 0
-298 -295 0
-299 -296 0
51 -72 0
50 -73 0
49 -74 0
-57 -324 0
-58 -325 0
-59 -326 0
-12 -168 0
-13 -169 0
-14 -170 0
-345 -72 0
-346 -73 0
-347 -74 0
-105 -102 0
-106 -103 0
-107 -104 0
18 -189 0
17 -190 0
16 -191 0
-156 -150 0
-157 -151 0
-158 -152 0
-183 -186 0
-184 -187 0
-185 -188 0
3 -72 0
2 -73 0
1 -74 0
6 -72 0
5 -73 0
4 -74 0
39 -72 0
38 -73 0
37 -74 0
-387 -378 0
-388 -379 0
-389 -380 0
-192 -72 0
-193 -73 0
-194 -74 0
-48 48 0
-49 47 0
-50 46 0
-285 -282 0
-286 -283 0
-287 -284 0
-234 -69 0
-235 -70 0
-236 -71 0
-267 -261 0
-268 -262 0
-269 -263 0
-12 -276 0
-13 -277 0
-14 -278 0
-108 -105 0
-109 -106 0
-110 -107 0
-159 -153 0
-160 -154 0
-161 -155 0
-9 -96 0
-10 -97 0
-11 -98 0
-33 -72 0
-34 -73 0
-35 -74 0
-198 -72 0
-199 -73 0
-200 -74 0
-42 42 0
-43 41 0
-44 40 0
51 -51 0
50 -52 0
49 -53 0
54 -54 0
53 -55 0
52 -56 0
-63 -360 0
-64 -361 0
-65 -362 0
-363 -72 0
-364 -73 0
-365 -74 0
-384 -381 0
-385 -382 0
-386 -383 0
-45 -72 0
-46 -73 0
-47 -74 0
-177 -174 0
-178 -175 0
-179 -176 0
-252 -69 0
-253 -70 0
-254 -71 0
-12 -201 0
-13 -202 0
-14 -203 0
-309 -300 0
-310 -301 0
-311 -302 0
-210 -201 0
-211 -202 0
-212 -203 0
-405 -396 0
-406 -397 0
-407 -398 0
60 -354 0
59 -355 0
58 -356 0
-54 -306 0
-55 -307 0
-56 -308 0
-102 -93 0
-103 -94 0
-104 -95 0
-195 -192 0
-196 -193 0
-197 -194 0
66 -390 0
65 -391 0
64 -392 0
-84 -72 0
-85 -73 0
-86 -74 0
-51 -72 0
-52 -73 0
-53 -74 0
-228 -219 0
-229 -220 0
-230 -221 0
-126 -69 0
-127 -70 0
-128 -71 0
-282 -72 0
-283 -73 0
-284 -74 0
-327 -321 0
-328 -322 0
-329 -323 0
-273 -276 0
-274 -277 0
-275 -278 0
-141 -138 0
-142 -139 0
-143 -140 0
-60 -342 0
-61 -343 0
-62 -344 0
24 -396 0
23 -397 0
22 -398 0
60 -60 0
59 -61 0
58 -62 0
-369 -69 0
-370 -70 0
-371 -71 0
3 -3 0
2 -4 0
1 -5 0
-18 -207 0
-19 -208 0
-20 -209 0
-216 -207 0
-217 -208 0
-218 -209 0
-12 12 0
-13 11 0
-14 10 0
-216 -69 0
-217 -70 0
-218 -71 0
-372 -375 0
-373 -376 0
-374 -377 0
-3 -300 0
-4 -301 0
-5 -302 0
-405 -402 0
-406 -403 0
-407 -404 0
63 -72 0
62 -73 0
61 -74 0
-102 -72 0
-103 -73 0
-104 -74 0
-405 -72 0
-406 -73 0
-407 -74 0
-333 -72 0
-334 -73 0
-335 -74 0
-6 6 0
-7 5 0
-8 4 0
12 -339 0
11 -340 0
10 -341 0
-198 -195 0
-199 -196 0
-200 -197 0
-249 -243 0
-250 -244 0
-251 -245 0
-84 -78 0
-85 -79 0
-86 -80 0
-15 -72 0
-16 -73 0
-17 -74 0
18 -72 0
17 -73 0
16 -74 0
-111 -114 0
-112 -115 0
-113 -116 0
-387 -69 0
-388 -70 0
-389 -71 0
-90 -69 0
-91 -70 0
-92 -71 0
-180 -72 0
-181 -73 0
-182 -74 0
-213 -210 0
-214 -211 0
-215 -212 0
-27 -258 0
-28 -259 0
-29 -260 0
24 -72 0
23 -73 0
22 -74 0
-216 -213 0
-217 -214 0
-218 -215 0
-18 -240 0
-19 -241 0
-20 -242 0
-129 -132 0
-130 -133 0
-131 -134 0
12 -72 0
11 -73 0
10 -74 0
-348 -342 0
-349 -343 0
-350 -344 0
-21 -72 0
-22 -73 0
-23 -74 0
-234 -225 0
-235 -226 0
-236 -227 0
-54 -72 0
-55 -73 0
-56 -74 0
-399 -390 0
-400 -391 0
-401 -392 0
-351 -72 0
-352 -73 0
-353 -74 0
-312 -309 0
-313 -310 0
-314 -311 0
-66 -72 0
-67 -73 0
-68 -74 0
-108 -69 0
-109 -70 0
-110 -71 0
-390 -393 0
-391 -394 0
-392 -395 0
-366 -360 0
-367 -361 0
-368 -362 0
24 -24 0
23 -25 0
22 -26 0
-282 -276 0
-283 -277 0
-284 -278 0
-333 -324 0
-334 -325 0
-335 -326 0
-15 -132 0
-16 -133 0
-17 -134 0
60 -72 0
59 -73 0
58 -74 0
-39 -72 0
-40 -73 0
-41 -74 0
